(set-logic LIA)
(define-fun max11 ((x1 Int)(x2 Int)(x3 Int)(x4 Int)(x5 Int)(x6 Int)(x7 Int)(x8 Int)(x9 Int)(x10 Int)(x11 Int)) Int
    (ite (>= x11 (ite (>= x10 (ite (>= x9 (ite (>= x8 (ite (>= x7 (ite (>= x6 (ite (>= x5 (ite (>= x4 (ite (>= x3 (ite (>= x2 x1) x2 x1)) x3 (ite (>= x2 x1) x2 x1))) x4 (ite (>= x3 (ite (>= x2 x1) x2 x1)) x3 (ite (>= x2 x1) x2 x1)))) x5 (ite (>= x4 (ite (>= x3 (ite (>= x2 x1) x2 x1)) x3 (ite (>= x2 x1) x2 x1))) x4 (ite (>= x3 (ite (>= x2 x1) x2 x1)) x3 (ite (>= x2 x1) x2 x1))))) x6 (ite (>= x5 (ite (>= x4 (ite (>= x3 (ite (>= x2 x1) x2 x1)) x3 (ite (>= x2 x1) x2 x1))) x4 (ite (>= x3 (ite (>= x2 x1) x2 x1)) x3 (ite (>= x2 x1) x2 x1)))) x5 (ite (>= x4 (ite (>= x3 (ite (>= x2 x1) x2 x1)) x3 (ite (>= x2 x1) x2 x1))) x4 (ite (>= x3 (ite (>= x2 x1) x2 x1)) x3 (ite (>= x2 x1) x2 x1)))))) x7 (ite (>= x6 (ite (>= x5 (ite (>= x4 (ite (>= x3 (ite (>= x2 x1) x2 x1)) x3 (ite (>= x2 x1) x2 x1))) x4 (ite (>= x3 (ite (>= x2 x1) x2 x1)) x3 (ite (>= x2 x1) x2 x1)))) x5 (ite (>= x4 (ite (>= x3 (ite (>= x2 x1) x2 x1)) x3 (ite (>= x2 x1) x2 x1))) x4 (ite (>= x3 (ite (>= x2 x1) x2 x1)) x3 (ite (>= x2 x1) x2 x1))))) x6 (ite (>= x5 (ite (>= x4 (ite (>= x3 (ite (>= x2 x1) x2 x1)) x3 (ite (>= x2 x1) x2 x1))) x4 (ite (>= x3 (ite (>= x2 x1) x2 x1)) x3 (ite (>= x2 x1) x2 x1)))) x5 (ite (>= x4 (ite (>= x3 (ite (>= x2 x1) x2 x1)) x3 (ite (>= x2 x1) x2 x1))) x4 (ite (>= x3 (ite (>= x2 x1) x2 x1)) x3 (ite (>= x2 x1) x2 x1))))))) x8 (ite (>= x7 (ite (>= x6 (ite (>= x5 (ite (>= x4 (ite (>= x3 (ite (>= x2 x1) x2 x1)) x3 (ite (>= x2 x1) x2 x1))) x4 (ite (>= x3 (ite (>= x2 x1) x2 x1)) x3 (ite (>= x2 x1) x2 x1)))) x5 (ite (>= x4 (ite (>= x3 (ite (>= x2 x1) x2 x1)) x3 (ite (>= x2 x1) x2 x1))) x4 (ite (>= x3 (ite (>= x2 x1) x2 x1)) x3 (ite (>= x2 x1) x2 x1))))) x6 (ite (>= x5 (ite (>= x4 (ite (>= x3 (ite (>= x2 x1) x2 x1)) x3 (ite (>= x2 x1) x2 x1))) x4 (ite (>= x3 (ite (>= x2 x1) x2 x1)) x3 (ite (>= x2 x1) x2 x1)))) x5 (ite (>= x4 (ite (>= x3 (ite (>= x2 x1) x2 x1)) x3 (ite (>= x2 x1) x2 x1))) x4 (ite (>= x3 (ite (>= x2 x1) x2 x1)) x3 (ite (>= x2 x1) x2 x1)))))) x7 (ite (>= x6 (ite (>= x5 (ite (>= x4 (ite (>= x3 (ite (>= x2 x1) x2 x1)) x3 (ite (>= x2 x1) x2 x1))) x4 (ite (>= x3 (ite (>= x2 x1) x2 x1)) x3 (ite (>= x2 x1) x2 x1)))) x5 (ite (>= x4 (ite (>= x3 (ite (>= x2 x1) x2 x1)) x3 (ite (>= x2 x1) x2 x1))) x4 (ite (>= x3 (ite (>= x2 x1) x2 x1)) x3 (ite (>= x2 x1) x2 x1))))) x6 (ite (>= x5 (ite (>= x4 (ite (>= x3 (ite (>= x2 x1) x2 x1)) x3 (ite (>= x2 x1) x2 x1))) x4 (ite (>= x3 (ite (>= x2 x1) x2 x1)) x3 (ite (>= x2 x1) x2 x1)))) x5 (ite (>= x4 (ite (>= x3 (ite (>= x2 x1) x2 x1)) x3 (ite (>= x2 x1) x2 x1))) x4 (ite (>= x3 (ite (>= x2 x1) x2 x1)) x3 (ite (>= x2 x1) x2 x1)))))))) x9 (ite (>= x8 (ite (>= x7 (ite (>= x6 (ite (>= x5 (ite (>= x4 (ite (>= x3 (ite (>= x2 x1) x2 x1)) x3 (ite (>= x2 x1) x2 x1))) x4 (ite (>= x3 (ite (>= x2 x1) x2 x1)) x3 (ite (>= x2 x1) x2 x1)))) x5 (ite (>= x4 (ite (>= x3 (ite (>= x2 x1) x2 x1)) x3 (ite (>= x2 x1) x2 x1))) x4 (ite (>= x3 (ite (>= x2 x1) x2 x1)) x3 (ite (>= x2 x1) x2 x1))))) x6 (ite (>= x5 (ite (>= x4 (ite (>= x3 (ite (>= x2 x1) x2 x1)) x3 (ite (>= x2 x1) x2 x1))) x4 (ite (>= x3 (ite (>= x2 x1) x2 x1)) x3 (ite (>= x2 x1) x2 x1)))) x5 (ite (>= x4 (ite (>= x3 (ite (>= x2 x1) x2 x1)) x3 (ite (>= x2 x1) x2 x1))) x4 (ite (>= x3 (ite (>= x2 x1) x2 x1)) x3 (ite (>= x2 x1) x2 x1)))))) x7 (ite (>= x6 (ite (>= x5 (ite (>= x4 (ite (>= x3 (ite (>= x2 x1) x2 x1)) x3 (ite (>= x2 x1) x2 x1))) x4 (ite (>= x3 (ite (>= x2 x1) x2 x1)) x3 (ite (>= x2 x1) x2 x1)))) x5 (ite (>= x4 (ite (>= x3 (ite (>= x2 x1) x2 x1)) x3 (ite (>= x2 x1) x2 x1))) x4 (ite (>= x3 (ite (>= x2 x1) x2 x1)) x3 (ite (>= x2 x1) x2 x1))))) x6 (ite (>= x5 (ite (>= x4 (ite (>= x3 (ite (>= x2 x1) x2 x1)) x3 (ite (>= x2 x1) x2 x1))) x4 (ite (>= x3 (ite (>= x2 x1) x2 x1)) x3 (ite (>= x2 x1) x2 x1)))) x5 (ite (>= x4 (ite (>= x3 (ite (>= x2 x1) x2 x1)) x3 (ite (>= x2 x1) x2 x1))) x4 (ite (>= x3 (ite (>= x2 x1) x2 x1)) x3 (ite (>= x2 x1) x2 x1))))))) x8 (ite (>= x7 (ite (>= x6 (ite (>= x5 (ite (>= x4 (ite (>= x3 (ite (>= x2 x1) x2 x1)) x3 (ite (>= x2 x1) x2 x1))) x4 (ite (>= x3 (ite (>= x2 x1) x2 x1)) x3 (ite (>= x2 x1) x2 x1)))) x5 (ite (>= x4 (ite (>= x3 (ite (>= x2 x1) x2 x1)) x3 (ite (>= x2 x1) x2 x1))) x4 (ite (>= x3 (ite (>= x2 x1) x2 x1)) x3 (ite (>= x2 x1) x2 x1))))) x6 (ite (>= x5 (ite (>= x4 (ite (>= x3 (ite (>= x2 x1) x2 x1)) x3 (ite (>= x2 x1) x2 x1))) x4 (ite (>= x3 (ite (>= x2 x1) x2 x1)) x3 (ite (>= x2 x1) x2 x1)))) x5 (ite (>= x4 (ite (>= x3 (ite (>= x2 x1) x2 x1)) x3 (ite (>= x2 x1) x2 x1))) x4 (ite (>= x3 (ite (>= x2 x1) x2 x1)) x3 (ite (>= x2 x1) x2 x1)))))) x7 (ite (>= x6 (ite (>= x5 (ite (>= x4 (ite (>= x3 (ite (>= x2 x1) x2 x1)) x3 (ite (>= x2 x1) x2 x1))) x4 (ite (>= x3 (ite (>= x2 x1) x2 x1)) x3 (ite (>= x2 x1) x2 x1)))) x5 (ite (>= x4 (ite (>= x3 (ite (>= x2 x1) x2 x1)) x3 (ite (>= x2 x1) x2 x1))) x4 (ite (>= x3 (ite (>= x2 x1) x2 x1)) x3 (ite (>= x2 x1) x2 x1))))) x6 (ite (>= x5 (ite (>= x4 (ite (>= x3 (ite (>= x2 x1) x2 x1)) x3 (ite (>= x2 x1) x2 x1))) x4 (ite (>= x3 (ite (>= x2 x1) x2 x1)) x3 (ite (>= x2 x1) x2 x1)))) x5 (ite (>= x4 (ite (>= x3 (ite (>= x2 x1) x2 x1)) x3 (ite (>= x2 x1) x2 x1))) x4 (ite (>= x3 (ite (>= x2 x1) x2 x1)) x3 (ite (>= x2 x1) x2 x1))))))))) x10 (ite (>= x9 (ite (>= x8 (ite (>= x7 (ite (>= x6 (ite (>= x5 (ite (>= x4 (ite (>= x3 (ite (>= x2 x1) x2 x1)) x3 (ite (>= x2 x1) x2 x1))) x4 (ite (>= x3 (ite (>= x2 x1) x2 x1)) x3 (ite (>= x2 x1) x2 x1)))) x5 (ite (>= x4 (ite (>= x3 (ite (>= x2 x1) x2 x1)) x3 (ite (>= x2 x1) x2 x1))) x4 (ite (>= x3 (ite (>= x2 x1) x2 x1)) x3 (ite (>= x2 x1) x2 x1))))) x6 (ite (>= x5 (ite (>= x4 (ite (>= x3 (ite (>= x2 x1) x2 x1)) x3 (ite (>= x2 x1) x2 x1))) x4 (ite (>= x3 (ite (>= x2 x1) x2 x1)) x3 (ite (>= x2 x1) x2 x1)))) x5 (ite (>= x4 (ite (>= x3 (ite (>= x2 x1) x2 x1)) x3 (ite (>= x2 x1) x2 x1))) x4 (ite (>= x3 (ite (>= x2 x1) x2 x1)) x3 (ite (>= x2 x1) x2 x1)))))) x7 (ite (>= x6 (ite (>= x5 (ite (>= x4 (ite (>= x3 (ite (>= x2 x1) x2 x1)) x3 (ite (>= x2 x1) x2 x1))) x4 (ite (>= x3 (ite (>= x2 x1) x2 x1)) x3 (ite (>= x2 x1) x2 x1)))) x5 (ite (>= x4 (ite (>= x3 (ite (>= x2 x1) x2 x1)) x3 (ite (>= x2 x1) x2 x1))) x4 (ite (>= x3 (ite (>= x2 x1) x2 x1)) x3 (ite (>= x2 x1) x2 x1))))) x6 (ite (>= x5 (ite (>= x4 (ite (>= x3 (ite (>= x2 x1) x2 x1)) x3 (ite (>= x2 x1) x2 x1))) x4 (ite (>= x3 (ite (>= x2 x1) x2 x1)) x3 (ite (>= x2 x1) x2 x1)))) x5 (ite (>= x4 (ite (>= x3 (ite (>= x2 x1) x2 x1)) x3 (ite (>= x2 x1) x2 x1))) x4 (ite (>= x3 (ite (>= x2 x1) x2 x1)) x3 (ite (>= x2 x1) x2 x1))))))) x8 (ite (>= x7 (ite (>= x6 (ite (>= x5 (ite (>= x4 (ite (>= x3 (ite (>= x2 x1) x2 x1)) x3 (ite (>= x2 x1) x2 x1))) x4 (ite (>= x3 (ite (>= x2 x1) x2 x1)) x3 (ite (>= x2 x1) x2 x1)))) x5 (ite (>= x4 (ite (>= x3 (ite (>= x2 x1) x2 x1)) x3 (ite (>= x2 x1) x2 x1))) x4 (ite (>= x3 (ite (>= x2 x1) x2 x1)) x3 (ite (>= x2 x1) x2 x1))))) x6 (ite (>= x5 (ite (>= x4 (ite (>= x3 (ite (>= x2 x1) x2 x1)) x3 (ite (>= x2 x1) x2 x1))) x4 (ite (>= x3 (ite (>= x2 x1) x2 x1)) x3 (ite (>= x2 x1) x2 x1)))) x5 (ite (>= x4 (ite (>= x3 (ite (>= x2 x1) x2 x1)) x3 (ite (>= x2 x1) x2 x1))) x4 (ite (>= x3 (ite (>= x2 x1) x2 x1)) x3 (ite (>= x2 x1) x2 x1)))))) x7 (ite (>= x6 (ite (>= x5 (ite (>= x4 (ite (>= x3 (ite (>= x2 x1) x2 x1)) x3 (ite (>= x2 x1) x2 x1))) x4 (ite (>= x3 (ite (>= x2 x1) x2 x1)) x3 (ite (>= x2 x1) x2 x1)))) x5 (ite (>= x4 (ite (>= x3 (ite (>= x2 x1) x2 x1)) x3 (ite (>= x2 x1) x2 x1))) x4 (ite (>= x3 (ite (>= x2 x1) x2 x1)) x3 (ite (>= x2 x1) x2 x1))))) x6 (ite (>= x5 (ite (>= x4 (ite (>= x3 (ite (>= x2 x1) x2 x1)) x3 (ite (>= x2 x1) x2 x1))) x4 (ite (>= x3 (ite (>= x2 x1) x2 x1)) x3 (ite (>= x2 x1) x2 x1)))) x5 (ite (>= x4 (ite (>= x3 (ite (>= x2 x1) x2 x1)) x3 (ite (>= x2 x1) x2 x1))) x4 (ite (>= x3 (ite (>= x2 x1) x2 x1)) x3 (ite (>= x2 x1) x2 x1)))))))) x9 (ite (>= x8 (ite (>= x7 (ite (>= x6 (ite (>= x5 (ite (>= x4 (ite (>= x3 (ite (>= x2 x1) x2 x1)) x3 (ite (>= x2 x1) x2 x1))) x4 (ite (>= x3 (ite (>= x2 x1) x2 x1)) x3 (ite (>= x2 x1) x2 x1)))) x5 (ite (>= x4 (ite (>= x3 (ite (>= x2 x1) x2 x1)) x3 (ite (>= x2 x1) x2 x1))) x4 (ite (>= x3 (ite (>= x2 x1) x2 x1)) x3 (ite (>= x2 x1) x2 x1))))) x6 (ite (>= x5 (ite (>= x4 (ite (>= x3 (ite (>= x2 x1) x2 x1)) x3 (ite (>= x2 x1) x2 x1))) x4 (ite (>= x3 (ite (>= x2 x1) x2 x1)) x3 (ite (>= x2 x1) x2 x1)))) x5 (ite (>= x4 (ite (>= x3 (ite (>= x2 x1) x2 x1)) x3 (ite (>= x2 x1) x2 x1))) x4 (ite (>= x3 (ite (>= x2 x1) x2 x1)) x3 (ite (>= x2 x1) x2 x1)))))) x7 (ite (>= x6 (ite (>= x5 (ite (>= x4 (ite (>= x3 (ite (>= x2 x1) x2 x1)) x3 (ite (>= x2 x1) x2 x1))) x4 (ite (>= x3 (ite (>= x2 x1) x2 x1)) x3 (ite (>= x2 x1) x2 x1)))) x5 (ite (>= x4 (ite (>= x3 (ite (>= x2 x1) x2 x1)) x3 (ite (>= x2 x1) x2 x1))) x4 (ite (>= x3 (ite (>= x2 x1) x2 x1)) x3 (ite (>= x2 x1) x2 x1))))) x6 (ite (>= x5 (ite (>= x4 (ite (>= x3 (ite (>= x2 x1) x2 x1)) x3 (ite (>= x2 x1) x2 x1))) x4 (ite (>= x3 (ite (>= x2 x1) x2 x1)) x3 (ite (>= x2 x1) x2 x1)))) x5 (ite (>= x4 (ite (>= x3 (ite (>= x2 x1) x2 x1)) x3 (ite (>= x2 x1) x2 x1))) x4 (ite (>= x3 (ite (>= x2 x1) x2 x1)) x3 (ite (>= x2 x1) x2 x1))))))) x8 (ite (>= x7 (ite (>= x6 (ite (>= x5 (ite (>= x4 (ite (>= x3 (ite (>= x2 x1) x2 x1)) x3 (ite (>= x2 x1) x2 x1))) x4 (ite (>= x3 (ite (>= x2 x1) x2 x1)) x3 (ite (>= x2 x1) x2 x1)))) x5 (ite (>= x4 (ite (>= x3 (ite (>= x2 x1) x2 x1)) x3 (ite (>= x2 x1) x2 x1))) x4 (ite (>= x3 (ite (>= x2 x1) x2 x1)) x3 (ite (>= x2 x1) x2 x1))))) x6 (ite (>= x5 (ite (>= x4 (ite (>= x3 (ite (>= x2 x1) x2 x1)) x3 (ite (>= x2 x1) x2 x1))) x4 (ite (>= x3 (ite (>= x2 x1) x2 x1)) x3 (ite (>= x2 x1) x2 x1)))) x5 (ite (>= x4 (ite (>= x3 (ite (>= x2 x1) x2 x1)) x3 (ite (>= x2 x1) x2 x1))) x4 (ite (>= x3 (ite (>= x2 x1) x2 x1)) x3 (ite (>= x2 x1) x2 x1)))))) x7 (ite (>= x6 (ite (>= x5 (ite (>= x4 (ite (>= x3 (ite (>= x2 x1) x2 x1)) x3 (ite (>= x2 x1) x2 x1))) x4 (ite (>= x3 (ite (>= x2 x1) x2 x1)) x3 (ite (>= x2 x1) x2 x1)))) x5 (ite (>= x4 (ite (>= x3 (ite (>= x2 x1) x2 x1)) x3 (ite (>= x2 x1) x2 x1))) x4 (ite (>= x3 (ite (>= x2 x1) x2 x1)) x3 (ite (>= x2 x1) x2 x1))))) x6 (ite (>= x5 (ite (>= x4 (ite (>= x3 (ite (>= x2 x1) x2 x1)) x3 (ite (>= x2 x1) x2 x1))) x4 (ite (>= x3 (ite (>= x2 x1) x2 x1)) x3 (ite (>= x2 x1) x2 x1)))) x5 (ite (>= x4 (ite (>= x3 (ite (>= x2 x1) x2 x1)) x3 (ite (>= x2 x1) x2 x1))) x4 (ite (>= x3 (ite (>= x2 x1) x2 x1)) x3 (ite (>= x2 x1) x2 x1)))))))))) x11 (ite (>= x10 (ite (>= x9 (ite (>= x8 (ite (>= x7 (ite (>= x6 (ite (>= x5 (ite (>= x4 (ite (>= x3 (ite (>= x2 x1) x2 x1)) x3 (ite (>= x2 x1) x2 x1))) x4 (ite (>= x3 (ite (>= x2 x1) x2 x1)) x3 (ite (>= x2 x1) x2 x1)))) x5 (ite (>= x4 (ite (>= x3 (ite (>= x2 x1) x2 x1)) x3 (ite (>= x2 x1) x2 x1))) x4 (ite (>= x3 (ite (>= x2 x1) x2 x1)) x3 (ite (>= x2 x1) x2 x1))))) x6 (ite (>= x5 (ite (>= x4 (ite (>= x3 (ite (>= x2 x1) x2 x1)) x3 (ite (>= x2 x1) x2 x1))) x4 (ite (>= x3 (ite (>= x2 x1) x2 x1)) x3 (ite (>= x2 x1) x2 x1)))) x5 (ite (>= x4 (ite (>= x3 (ite (>= x2 x1) x2 x1)) x3 (ite (>= x2 x1) x2 x1))) x4 (ite (>= x3 (ite (>= x2 x1) x2 x1)) x3 (ite (>= x2 x1) x2 x1)))))) x7 (ite (>= x6 (ite (>= x5 (ite (>= x4 (ite (>= x3 (ite (>= x2 x1) x2 x1)) x3 (ite (>= x2 x1) x2 x1))) x4 (ite (>= x3 (ite (>= x2 x1) x2 x1)) x3 (ite (>= x2 x1) x2 x1)))) x5 (ite (>= x4 (ite (>= x3 (ite (>= x2 x1) x2 x1)) x3 (ite (>= x2 x1) x2 x1))) x4 (ite (>= x3 (ite (>= x2 x1) x2 x1)) x3 (ite (>= x2 x1) x2 x1))))) x6 (ite (>= x5 (ite (>= x4 (ite (>= x3 (ite (>= x2 x1) x2 x1)) x3 (ite (>= x2 x1) x2 x1))) x4 (ite (>= x3 (ite (>= x2 x1) x2 x1)) x3 (ite (>= x2 x1) x2 x1)))) x5 (ite (>= x4 (ite (>= x3 (ite (>= x2 x1) x2 x1)) x3 (ite (>= x2 x1) x2 x1))) x4 (ite (>= x3 (ite (>= x2 x1) x2 x1)) x3 (ite (>= x2 x1) x2 x1))))))) x8 (ite (>= x7 (ite (>= x6 (ite (>= x5 (ite (>= x4 (ite (>= x3 (ite (>= x2 x1) x2 x1)) x3 (ite (>= x2 x1) x2 x1))) x4 (ite (>= x3 (ite (>= x2 x1) x2 x1)) x3 (ite (>= x2 x1) x2 x1)))) x5 (ite (>= x4 (ite (>= x3 (ite (>= x2 x1) x2 x1)) x3 (ite (>= x2 x1) x2 x1))) x4 (ite (>= x3 (ite (>= x2 x1) x2 x1)) x3 (ite (>= x2 x1) x2 x1))))) x6 (ite (>= x5 (ite (>= x4 (ite (>= x3 (ite (>= x2 x1) x2 x1)) x3 (ite (>= x2 x1) x2 x1))) x4 (ite (>= x3 (ite (>= x2 x1) x2 x1)) x3 (ite (>= x2 x1) x2 x1)))) x5 (ite (>= x4 (ite (>= x3 (ite (>= x2 x1) x2 x1)) x3 (ite (>= x2 x1) x2 x1))) x4 (ite (>= x3 (ite (>= x2 x1) x2 x1)) x3 (ite (>= x2 x1) x2 x1)))))) x7 (ite (>= x6 (ite (>= x5 (ite (>= x4 (ite (>= x3 (ite (>= x2 x1) x2 x1)) x3 (ite (>= x2 x1) x2 x1))) x4 (ite (>= x3 (ite (>= x2 x1) x2 x1)) x3 (ite (>= x2 x1) x2 x1)))) x5 (ite (>= x4 (ite (>= x3 (ite (>= x2 x1) x2 x1)) x3 (ite (>= x2 x1) x2 x1))) x4 (ite (>= x3 (ite (>= x2 x1) x2 x1)) x3 (ite (>= x2 x1) x2 x1))))) x6 (ite (>= x5 (ite (>= x4 (ite (>= x3 (ite (>= x2 x1) x2 x1)) x3 (ite (>= x2 x1) x2 x1))) x4 (ite (>= x3 (ite (>= x2 x1) x2 x1)) x3 (ite (>= x2 x1) x2 x1)))) x5 (ite (>= x4 (ite (>= x3 (ite (>= x2 x1) x2 x1)) x3 (ite (>= x2 x1) x2 x1))) x4 (ite (>= x3 (ite (>= x2 x1) x2 x1)) x3 (ite (>= x2 x1) x2 x1)))))))) x9 (ite (>= x8 (ite (>= x7 (ite (>= x6 (ite (>= x5 (ite (>= x4 (ite (>= x3 (ite (>= x2 x1) x2 x1)) x3 (ite (>= x2 x1) x2 x1))) x4 (ite (>= x3 (ite (>= x2 x1) x2 x1)) x3 (ite (>= x2 x1) x2 x1)))) x5 (ite (>= x4 (ite (>= x3 (ite (>= x2 x1) x2 x1)) x3 (ite (>= x2 x1) x2 x1))) x4 (ite (>= x3 (ite (>= x2 x1) x2 x1)) x3 (ite (>= x2 x1) x2 x1))))) x6 (ite (>= x5 (ite (>= x4 (ite (>= x3 (ite (>= x2 x1) x2 x1)) x3 (ite (>= x2 x1) x2 x1))) x4 (ite (>= x3 (ite (>= x2 x1) x2 x1)) x3 (ite (>= x2 x1) x2 x1)))) x5 (ite (>= x4 (ite (>= x3 (ite (>= x2 x1) x2 x1)) x3 (ite (>= x2 x1) x2 x1))) x4 (ite (>= x3 (ite (>= x2 x1) x2 x1)) x3 (ite (>= x2 x1) x2 x1)))))) x7 (ite (>= x6 (ite (>= x5 (ite (>= x4 (ite (>= x3 (ite (>= x2 x1) x2 x1)) x3 (ite (>= x2 x1) x2 x1))) x4 (ite (>= x3 (ite (>= x2 x1) x2 x1)) x3 (ite (>= x2 x1) x2 x1)))) x5 (ite (>= x4 (ite (>= x3 (ite (>= x2 x1) x2 x1)) x3 (ite (>= x2 x1) x2 x1))) x4 (ite (>= x3 (ite (>= x2 x1) x2 x1)) x3 (ite (>= x2 x1) x2 x1))))) x6 (ite (>= x5 (ite (>= x4 (ite (>= x3 (ite (>= x2 x1) x2 x1)) x3 (ite (>= x2 x1) x2 x1))) x4 (ite (>= x3 (ite (>= x2 x1) x2 x1)) x3 (ite (>= x2 x1) x2 x1)))) x5 (ite (>= x4 (ite (>= x3 (ite (>= x2 x1) x2 x1)) x3 (ite (>= x2 x1) x2 x1))) x4 (ite (>= x3 (ite (>= x2 x1) x2 x1)) x3 (ite (>= x2 x1) x2 x1))))))) x8 (ite (>= x7 (ite (>= x6 (ite (>= x5 (ite (>= x4 (ite (>= x3 (ite (>= x2 x1) x2 x1)) x3 (ite (>= x2 x1) x2 x1))) x4 (ite (>= x3 (ite (>= x2 x1) x2 x1)) x3 (ite (>= x2 x1) x2 x1)))) x5 (ite (>= x4 (ite (>= x3 (ite (>= x2 x1) x2 x1)) x3 (ite (>= x2 x1) x2 x1))) x4 (ite (>= x3 (ite (>= x2 x1) x2 x1)) x3 (ite (>= x2 x1) x2 x1))))) x6 (ite (>= x5 (ite (>= x4 (ite (>= x3 (ite (>= x2 x1) x2 x1)) x3 (ite (>= x2 x1) x2 x1))) x4 (ite (>= x3 (ite (>= x2 x1) x2 x1)) x3 (ite (>= x2 x1) x2 x1)))) x5 (ite (>= x4 (ite (>= x3 (ite (>= x2 x1) x2 x1)) x3 (ite (>= x2 x1) x2 x1))) x4 (ite (>= x3 (ite (>= x2 x1) x2 x1)) x3 (ite (>= x2 x1) x2 x1)))))) x7 (ite (>= x6 (ite (>= x5 (ite (>= x4 (ite (>= x3 (ite (>= x2 x1) x2 x1)) x3 (ite (>= x2 x1) x2 x1))) x4 (ite (>= x3 (ite (>= x2 x1) x2 x1)) x3 (ite (>= x2 x1) x2 x1)))) x5 (ite (>= x4 (ite (>= x3 (ite (>= x2 x1) x2 x1)) x3 (ite (>= x2 x1) x2 x1))) x4 (ite (>= x3 (ite (>= x2 x1) x2 x1)) x3 (ite (>= x2 x1) x2 x1))))) x6 (ite (>= x5 (ite (>= x4 (ite (>= x3 (ite (>= x2 x1) x2 x1)) x3 (ite (>= x2 x1) x2 x1))) x4 (ite (>= x3 (ite (>= x2 x1) x2 x1)) x3 (ite (>= x2 x1) x2 x1)))) x5 (ite (>= x4 (ite (>= x3 (ite (>= x2 x1) x2 x1)) x3 (ite (>= x2 x1) x2 x1))) x4 (ite (>= x3 (ite (>= x2 x1) x2 x1)) x3 (ite (>= x2 x1) x2 x1))))))))) x10 (ite (>= x9 (ite (>= x8 (ite (>= x7 (ite (>= x6 (ite (>= x5 (ite (>= x4 (ite (>= x3 (ite (>= x2 x1) x2 x1)) x3 (ite (>= x2 x1) x2 x1))) x4 (ite (>= x3 (ite (>= x2 x1) x2 x1)) x3 (ite (>= x2 x1) x2 x1)))) x5 (ite (>= x4 (ite (>= x3 (ite (>= x2 x1) x2 x1)) x3 (ite (>= x2 x1) x2 x1))) x4 (ite (>= x3 (ite (>= x2 x1) x2 x1)) x3 (ite (>= x2 x1) x2 x1))))) x6 (ite (>= x5 (ite (>= x4 (ite (>= x3 (ite (>= x2 x1) x2 x1)) x3 (ite (>= x2 x1) x2 x1))) x4 (ite (>= x3 (ite (>= x2 x1) x2 x1)) x3 (ite (>= x2 x1) x2 x1)))) x5 (ite (>= x4 (ite (>= x3 (ite (>= x2 x1) x2 x1)) x3 (ite (>= x2 x1) x2 x1))) x4 (ite (>= x3 (ite (>= x2 x1) x2 x1)) x3 (ite (>= x2 x1) x2 x1)))))) x7 (ite (>= x6 (ite (>= x5 (ite (>= x4 (ite (>= x3 (ite (>= x2 x1) x2 x1)) x3 (ite (>= x2 x1) x2 x1))) x4 (ite (>= x3 (ite (>= x2 x1) x2 x1)) x3 (ite (>= x2 x1) x2 x1)))) x5 (ite (>= x4 (ite (>= x3 (ite (>= x2 x1) x2 x1)) x3 (ite (>= x2 x1) x2 x1))) x4 (ite (>= x3 (ite (>= x2 x1) x2 x1)) x3 (ite (>= x2 x1) x2 x1))))) x6 (ite (>= x5 (ite (>= x4 (ite (>= x3 (ite (>= x2 x1) x2 x1)) x3 (ite (>= x2 x1) x2 x1))) x4 (ite (>= x3 (ite (>= x2 x1) x2 x1)) x3 (ite (>= x2 x1) x2 x1)))) x5 (ite (>= x4 (ite (>= x3 (ite (>= x2 x1) x2 x1)) x3 (ite (>= x2 x1) x2 x1))) x4 (ite (>= x3 (ite (>= x2 x1) x2 x1)) x3 (ite (>= x2 x1) x2 x1))))))) x8 (ite (>= x7 (ite (>= x6 (ite (>= x5 (ite (>= x4 (ite (>= x3 (ite (>= x2 x1) x2 x1)) x3 (ite (>= x2 x1) x2 x1))) x4 (ite (>= x3 (ite (>= x2 x1) x2 x1)) x3 (ite (>= x2 x1) x2 x1)))) x5 (ite (>= x4 (ite (>= x3 (ite (>= x2 x1) x2 x1)) x3 (ite (>= x2 x1) x2 x1))) x4 (ite (>= x3 (ite (>= x2 x1) x2 x1)) x3 (ite (>= x2 x1) x2 x1))))) x6 (ite (>= x5 (ite (>= x4 (ite (>= x3 (ite (>= x2 x1) x2 x1)) x3 (ite (>= x2 x1) x2 x1))) x4 (ite (>= x3 (ite (>= x2 x1) x2 x1)) x3 (ite (>= x2 x1) x2 x1)))) x5 (ite (>= x4 (ite (>= x3 (ite (>= x2 x1) x2 x1)) x3 (ite (>= x2 x1) x2 x1))) x4 (ite (>= x3 (ite (>= x2 x1) x2 x1)) x3 (ite (>= x2 x1) x2 x1)))))) x7 (ite (>= x6 (ite (>= x5 (ite (>= x4 (ite (>= x3 (ite (>= x2 x1) x2 x1)) x3 (ite (>= x2 x1) x2 x1))) x4 (ite (>= x3 (ite (>= x2 x1) x2 x1)) x3 (ite (>= x2 x1) x2 x1)))) x5 (ite (>= x4 (ite (>= x3 (ite (>= x2 x1) x2 x1)) x3 (ite (>= x2 x1) x2 x1))) x4 (ite (>= x3 (ite (>= x2 x1) x2 x1)) x3 (ite (>= x2 x1) x2 x1))))) x6 (ite (>= x5 (ite (>= x4 (ite (>= x3 (ite (>= x2 x1) x2 x1)) x3 (ite (>= x2 x1) x2 x1))) x4 (ite (>= x3 (ite (>= x2 x1) x2 x1)) x3 (ite (>= x2 x1) x2 x1)))) x5 (ite (>= x4 (ite (>= x3 (ite (>= x2 x1) x2 x1)) x3 (ite (>= x2 x1) x2 x1))) x4 (ite (>= x3 (ite (>= x2 x1) x2 x1)) x3 (ite (>= x2 x1) x2 x1)))))))) x9 (ite (>= x8 (ite (>= x7 (ite (>= x6 (ite (>= x5 (ite (>= x4 (ite (>= x3 (ite (>= x2 x1) x2 x1)) x3 (ite (>= x2 x1) x2 x1))) x4 (ite (>= x3 (ite (>= x2 x1) x2 x1)) x3 (ite (>= x2 x1) x2 x1)))) x5 (ite (>= x4 (ite (>= x3 (ite (>= x2 x1) x2 x1)) x3 (ite (>= x2 x1) x2 x1))) x4 (ite (>= x3 (ite (>= x2 x1) x2 x1)) x3 (ite (>= x2 x1) x2 x1))))) x6 (ite (>= x5 (ite (>= x4 (ite (>= x3 (ite (>= x2 x1) x2 x1)) x3 (ite (>= x2 x1) x2 x1))) x4 (ite (>= x3 (ite (>= x2 x1) x2 x1)) x3 (ite (>= x2 x1) x2 x1)))) x5 (ite (>= x4 (ite (>= x3 (ite (>= x2 x1) x2 x1)) x3 (ite (>= x2 x1) x2 x1))) x4 (ite (>= x3 (ite (>= x2 x1) x2 x1)) x3 (ite (>= x2 x1) x2 x1)))))) x7 (ite (>= x6 (ite (>= x5 (ite (>= x4 (ite (>= x3 (ite (>= x2 x1) x2 x1)) x3 (ite (>= x2 x1) x2 x1))) x4 (ite (>= x3 (ite (>= x2 x1) x2 x1)) x3 (ite (>= x2 x1) x2 x1)))) x5 (ite (>= x4 (ite (>= x3 (ite (>= x2 x1) x2 x1)) x3 (ite (>= x2 x1) x2 x1))) x4 (ite (>= x3 (ite (>= x2 x1) x2 x1)) x3 (ite (>= x2 x1) x2 x1))))) x6 (ite (>= x5 (ite (>= x4 (ite (>= x3 (ite (>= x2 x1) x2 x1)) x3 (ite (>= x2 x1) x2 x1))) x4 (ite (>= x3 (ite (>= x2 x1) x2 x1)) x3 (ite (>= x2 x1) x2 x1)))) x5 (ite (>= x4 (ite (>= x3 (ite (>= x2 x1) x2 x1)) x3 (ite (>= x2 x1) x2 x1))) x4 (ite (>= x3 (ite (>= x2 x1) x2 x1)) x3 (ite (>= x2 x1) x2 x1))))))) x8 (ite (>= x7 (ite (>= x6 (ite (>= x5 (ite (>= x4 (ite (>= x3 (ite (>= x2 x1) x2 x1)) x3 (ite (>= x2 x1) x2 x1))) x4 (ite (>= x3 (ite (>= x2 x1) x2 x1)) x3 (ite (>= x2 x1) x2 x1)))) x5 (ite (>= x4 (ite (>= x3 (ite (>= x2 x1) x2 x1)) x3 (ite (>= x2 x1) x2 x1))) x4 (ite (>= x3 (ite (>= x2 x1) x2 x1)) x3 (ite (>= x2 x1) x2 x1))))) x6 (ite (>= x5 (ite (>= x4 (ite (>= x3 (ite (>= x2 x1) x2 x1)) x3 (ite (>= x2 x1) x2 x1))) x4 (ite (>= x3 (ite (>= x2 x1) x2 x1)) x3 (ite (>= x2 x1) x2 x1)))) x5 (ite (>= x4 (ite (>= x3 (ite (>= x2 x1) x2 x1)) x3 (ite (>= x2 x1) x2 x1))) x4 (ite (>= x3 (ite (>= x2 x1) x2 x1)) x3 (ite (>= x2 x1) x2 x1)))))) x7 (ite (>= x6 (ite (>= x5 (ite (>= x4 (ite (>= x3 (ite (>= x2 x1) x2 x1)) x3 (ite (>= x2 x1) x2 x1))) x4 (ite (>= x3 (ite (>= x2 x1) x2 x1)) x3 (ite (>= x2 x1) x2 x1)))) x5 (ite (>= x4 (ite (>= x3 (ite (>= x2 x1) x2 x1)) x3 (ite (>= x2 x1) x2 x1))) x4 (ite (>= x3 (ite (>= x2 x1) x2 x1)) x3 (ite (>= x2 x1) x2 x1))))) x6 (ite (>= x5 (ite (>= x4 (ite (>= x3 (ite (>= x2 x1) x2 x1)) x3 (ite (>= x2 x1) x2 x1))) x4 (ite (>= x3 (ite (>= x2 x1) x2 x1)) x3 (ite (>= x2 x1) x2 x1)))) x5 (ite (>= x4 (ite (>= x3 (ite (>= x2 x1) x2 x1)) x3 (ite (>= x2 x1) x2 x1))) x4 (ite (>= x3 (ite (>= x2 x1) x2 x1)) x3 (ite (>= x2 x1) x2 x1))))))))))
)

(assert (forall ((x1 Int)(x10 Int)(x11 Int)(x2 Int)(x3 Int)(x4 Int)(x5 Int)(x6 Int)(x7 Int)(x8 Int)(x9 Int))
           (>= (max11 x1 x2 x3 x4 x5 x6 x7 x8 x9 x10 x11) x1)))
(assert (forall ((x1 Int)(x10 Int)(x11 Int)(x2 Int)(x3 Int)(x4 Int)(x5 Int)(x6 Int)(x7 Int)(x8 Int)(x9 Int))
           (>= (max11 x1 x2 x3 x4 x5 x6 x7 x8 x9 x10 x11) x2)))
(assert (forall ((x1 Int)(x10 Int)(x11 Int)(x2 Int)(x3 Int)(x4 Int)(x5 Int)(x6 Int)(x7 Int)(x8 Int)(x9 Int))
           (>= (max11 x1 x2 x3 x4 x5 x6 x7 x8 x9 x10 x11) x3)))
(assert (forall ((x1 Int)(x10 Int)(x11 Int)(x2 Int)(x3 Int)(x4 Int)(x5 Int)(x6 Int)(x7 Int)(x8 Int)(x9 Int))
           (>= (max11 x1 x2 x3 x4 x5 x6 x7 x8 x9 x10 x11) x4)))
(assert (forall ((x1 Int)(x10 Int)(x11 Int)(x2 Int)(x3 Int)(x4 Int)(x5 Int)(x6 Int)(x7 Int)(x8 Int)(x9 Int))
           (>= (max11 x1 x2 x3 x4 x5 x6 x7 x8 x9 x10 x11) x5)))
(assert (forall ((x1 Int)(x10 Int)(x11 Int)(x2 Int)(x3 Int)(x4 Int)(x5 Int)(x6 Int)(x7 Int)(x8 Int)(x9 Int))
           (>= (max11 x1 x2 x3 x4 x5 x6 x7 x8 x9 x10 x11) x6)))
(assert (forall ((x1 Int)(x10 Int)(x11 Int)(x2 Int)(x3 Int)(x4 Int)(x5 Int)(x6 Int)(x7 Int)(x8 Int)(x9 Int))
           (>= (max11 x1 x2 x3 x4 x5 x6 x7 x8 x9 x10 x11) x7)))
(assert (forall ((x1 Int)(x10 Int)(x11 Int)(x2 Int)(x3 Int)(x4 Int)(x5 Int)(x6 Int)(x7 Int)(x8 Int)(x9 Int))
           (>= (max11 x1 x2 x3 x4 x5 x6 x7 x8 x9 x10 x11) x8)))
(assert (forall ((x1 Int)(x10 Int)(x11 Int)(x2 Int)(x3 Int)(x4 Int)(x5 Int)(x6 Int)(x7 Int)(x8 Int)(x9 Int))
           (>= (max11 x1 x2 x3 x4 x5 x6 x7 x8 x9 x10 x11) x9)))
(assert (forall ((x1 Int)(x10 Int)(x11 Int)(x2 Int)(x3 Int)(x4 Int)(x5 Int)(x6 Int)(x7 Int)(x8 Int)(x9 Int))
           (>= (max11 x1 x2 x3 x4 x5 x6 x7 x8 x9 x10 x11) x10)))
(assert (forall ((x1 Int)(x10 Int)(x11 Int)(x2 Int)(x3 Int)(x4 Int)(x5 Int)(x6 Int)(x7 Int)(x8 Int)(x9 Int))
           (>= (max11 x1 x2 x3 x4 x5 x6 x7 x8 x9 x10 x11) x11)))
(assert (forall ((x1 Int)(x10 Int)(x11 Int)(x2 Int)(x3 Int)(x4 Int)(x5 Int)(x6 Int)(x7 Int)(x8 Int)(x9 Int))
           (or (= x1 (max11 x1 x2 x3 x4 x5 x6 x7 x8 x9 x10 x11)) (or (= x2 (max11 x1 x2 x3 x4 x5 x6 x7 x8 x9 x10 x11)) (or (= x3 (max11 x1 x2 x3 x4 x5 x6 x7 x8 x9 x10 x11)) (or (= x4 (max11 x1 x2 x3 x4 x5 x6 x7 x8 x9 x10 x11)) (or (= x5 (max11 x1 x2 x3 x4 x5 x6 x7 x8 x9 x10 x11)) (or (= x6 (max11 x1 x2 x3 x4 x5 x6 x7 x8 x9 x10 x11)) (or (= x7 (max11 x1 x2 x3 x4 x5 x6 x7 x8 x9 x10 x11)) (or (= x8 (max11 x1 x2 x3 x4 x5 x6 x7 x8 x9 x10 x11)) (or (= x9 (max11 x1 x2 x3 x4 x5 x6 x7 x8 x9 x10 x11)) (or (= x10 (max11 x1 x2 x3 x4 x5 x6 x7 x8 x9 x10 x11)) (= x11 (max11 x1 x2 x3 x4 x5 x6 x7 x8 x9 x10 x11))))))))))))))
(check-sat)
